Optimal - objective value 45.00000000
      1 x_0_3                   1                       8
      2 x_0_11                  1                       7
     23 x_6_11                  1                       4
     26 x_6_18                  1                       4
     27 x_7_9                   1                       3
     29 x_7_23                  1                       2
     35 x_8_23                  1                       2
     36 x_9_17                  1                       1
     52 x_14_17                 1                       7
     55 x_16_17                 1                       4
     56 x_16_18                 1                       3
     65 f_0_3                 3.5                       0
     66 f_3_0                 2.5                       0
     67 f_0_11                5.5                       0
     68 f_11_0                0.5                       0
    109 f_6_11                  1                       0
    110 f_11_6                  5                       0
    115 f_6_18                4.5                       0
    116 f_18_6                1.5                       0
    117 f_7_9                   2                       0
    118 f_9_7                   4                       0
    121 f_7_23                3.5                       0
    122 f_23_7                2.5                       0
    133 f_8_23                2.5                       0
    134 f_23_8                3.5                       0
    135 f_9_17                  2                       0
    136 f_17_9                  4                       0
    167 f_14_17               2.5                       0
    168 f_17_14               3.5                       0
    173 f_16_17                 3                       0
    176 f_18_16                 3                       0
